/*********************************************
 * OPL 12.6.0.0 Data
 * Author: Adrian Rodriguez Bazaga, Pau Rodriguez Esmerats
 * Creation Date: 06/12/2017 at 23:05:01
 *********************************************/

nNurses=328;
maxConsec=2;
maxPresence=7;
maxHours=5;
minHours=1;
hours=24;
demand= [51 58 90 78 58 90 78 63 64 36 3 14 8 17 9 12 7 8 6 3 47 91 45 74  ];
